db/data/623148475161130141066180261479412.z3.out
unsat
-------------------
1.743421666
